30 7 200
70 3 40
60 60 100
3 40 40
10 20 20
8 90 10
16 30 400
10 10 30
5 50 50
90 9 40
8 8 100
20 60 30
9 90 80
8 80 100
90 9 80
8 8 100
11 9 10
20 20 6
10 10 10
24 67 50
46 78 30
56 65 100
100 100 50
30 7 200
70 30 40
60 60 100
3 40 40
10 20 20
8 90 10
169 30 400
100 10 30
5 550 50
90 9 40
8 8 100
20 60 30
9 90 80
80 80 100
90 9 80
800 8 100
11 90 10
20 200 6
10 10 10
24 67 50
46 78 30
56 650 100
100 110 50